314 285 274 285 276 274 274 276 276 274 276 274 274 274 274 276 274 276 274 276 276 278 278 276 276 274 276 276 276 276 274 274 276 276 276 274 274 274 274 274 274 280 274 276 276 276 274 276 274 274 276 276 274 274 276 274 274 274 274 274 276 276 276 274 274 274 276 274 276 274 274 274 276 274 274 274 274 274 274 274 274 274 274 276 276 274 276 276 276 276 276 276 276 274 276 276 274 276 276 276 274 274 276 274 276 276 276 276 276 276 276 276 274 274 276 274 276 276 276 274 276 274 274 276 274 276 276 276 276 274 274 274 276 276 276 276 276 276 276 276 276 274 274 276 276 274 276 276 276 274 276 274 274 274 276 276 276 276 274 276 276 274 274 276 276 276 274 276 276 274 276 274 274 274 276 276 276 276 274 274 274 274 274 274 274 274 274 274 274 274 276 274 278 274 274 274 274 276 274 274 274 276 274 274 274 274 276 274 274 274 274 276 276 274 274 274 276 274 276 276 276 274 276 276 276 276 274 276 276 276 276 276 276 276 274 276 276 276 276 276 274 276 274 274 274 276 274 276 276 276 276 274 276 276 276 276 276 276 274 274 276 274 276 276 276 276 274 274 274 276 274 274 274 276 274 274 274 274 274 276 276 276 274 274 276 274 276 274 274 274 276 274 276 274 276 276 276 274 276 276 274 274 274 274 274 274 274 276 274 274 276 276 276 276 274 274 274 276 276 274 276 276 274 274 274 274 274 274 276 276 276 276 282 276 276 274 276 274 276 274 276 274 276 276 276 274 276 276 274 274 274 274 274 274 274 274 274 274 274 274 274 274 274 276 276 276 274 274 274 274 274 274 274 276 274 276 276 274 276 276 274 276 276 276 276 276 274 274 274 274 276 274 276 276 274 274 276 276 276 274 276 276 276 276 276 274 276 276 276 276 274 276 276 276 276 276 276 276 274 276 276 274 274 276 276 274 276 276 276 276 276 274 274 274 274 274 274 274 274 276 274 274 276 274 276 276 276 276 274 274 274 274 276 274 274 274 274 274 276 276 274 274 274 274 276 274 274 274 274 274 274 274 274 274 276 276 276 274 276 276 276 276 276 274 276 276 274 276 276 276 276 276 276 276 274 274 276 274 274 276 